; benchmark generated from python API
(set-info :status unknown)
(declare-fun a2 () Real)
(declare-fun a1 () Real)
(assert
 (forall ((x1 Real) )(let (($x55 (>= (- (+ a1 (* a2 x1)) (^ x1 2.0)) 0.0)))
 (let (($x56 (<= x1 5.0)))
 (let (($x57 (>= x1 (- 5.0))))
 (let (($x58 (and $x57 $x56)))
 (=> (and (>= (* (+ x1 1.0) (- 3.0 x1)) 0.0) $x58) $x55))))))
 )
(assert
 (forall ((x1 Real) )(let ((?x71 (- x1 (* (* (* (/ 1.0 100.0) x1) (- x1 2.0)) (- x1 4.0)))))
 (let (($x56 (<= x1 5.0)))
 (let (($x57 (>= x1 (- 5.0))))
 (let (($x58 (and $x57 $x56)))
 (let (($x80 (>= (* (+ x1 2.0) (- (/ 7.0 2.0) x1)) 0.0)))
 (let (($x55 (>= (- (+ a1 (* a2 x1)) (^ x1 2.0)) 0.0)))
 (=> (and $x55 $x80 $x58) (>= (- (+ a1 (* a2 ?x71)) (^ ?x71 2.0)) 0.0)))))))))
 )
(assert
 (forall ((x1 Real) )(let (($x56 (<= x1 5.0)))
 (let (($x57 (>= x1 (- 5.0))))
 (let (($x58 (and $x57 $x56)))
 (let (($x55 (>= (- (+ a1 (* a2 x1)) (^ x1 2.0)) 0.0)))
 (let (($x90 (and $x55 (not (>= (* (+ x1 2.0) (- (/ 7.0 2.0) x1)) 0.0)) $x58)))
 (=> $x90 (>= (* (- x1 3.0) (- 5.0 x1)) 0.0))))))))
 )
(check-sat)
